W=7;
H=3;

MAX_TIME=30;
MAX_TRACKS=9;

TARGET=(3,7);

TRAINS=[(3,4,LEFT),(1,1,RIGHT)];

INIT_POS=[
(1,1,STRAIGHT_RL),
(1,2,STRAIGHT_RL),
(1,5,STRAIGHT_RL),
(3,3,STRAIGHT_RL),
(3,4,STRAIGHT_RL),
(3,5,STRAIGHT_RL),
(3,7,STRAIGHT_RL),
];
TUNNEL_PAIRS=[];

GATES=[
(1,2,1,false),
(1,5,1,true),
(3,5,1,true),
];
ACTIVATIONS=[
(3,3,1),
];

DSWITCHES=[];

STATIONS=[];
